(set-info :smt-lib-version 2.6)
(set-logic QF_S)
(set-info :source |
Generated by: Hung-En Wang, Tzung-Lin Tsai, Chun-Han Lin, Fang Yu, and Jie-Hong R. Jiang
Generated on: 2019-02-28
Generator: Stranger
Application: Security analysis of string manipulating web applications
Target solver: CVC4, Norn, Z3-str2
Publication:
Hung-En Wang, Tzung-Lin Tsai, Chun-Han Lin, Fang Yu, Jie-Hong R. Jiang:
String Analysis via Automata Manipulation with Logic Circuit Representation. CAV (1) 2016: 241-260.
|)
(set-info :license "https://creativecommons.org/licenses/by/4.0/")
(set-info :category "industrial")
(set-info :status unknown)

(declare-fun sigmaStar_0 () String)
(declare-fun sigmaStar_1 () String)
(declare-fun literal_3 () String)
(declare-fun x_4 () String)
(declare-fun literal_5 () String)
(declare-fun x_7 () String)
(declare-fun x_6 () String)
(declare-fun epsilon () String)
(declare-fun x_10 () String)
(declare-fun literal_11 () String)
(declare-fun x_13 () String)
(declare-fun sigmaStar_14 () String)
(declare-fun sigmaStar_15 () String)
(declare-fun x_16 () String)
(declare-fun literal_17 () String)
(declare-fun x_19 () String)
(declare-fun x_18 () String)
(declare-fun x_20 () String)
(declare-fun literal_21 () String)
(declare-fun x_22 () String)
(assert (= literal_3 "\u{3c}\u{74}\u{64}\u{20}\u{77}\u{69}\u{64}\u{74}\u{68}\u{3d}\u{27}\u{34}\u{30}\u{25}\u{27}\u{20}\u{63}\u{6c}\u{61}\u{73}\u{73}\u{3d}\u{27}\u{74}\u{62}\u{6c}\u{32}\u{27}\u{3e}\u{3c}\u{62}\u{3e}"))
(assert (= x_4 (str.++ literal_3 sigmaStar_0)))
(assert (= literal_5 "\u{3c}\u{2f}\u{62}\u{3e}\u{20}"))
(assert (= x_7 (str.++ x_4 literal_5)))
(assert (= epsilon ""))
(assert (= x_6 epsilon))
(assert (= x_10 (str.++ x_7 x_6)))
(assert (= literal_11 "\u{3c}\u{2f}\u{74}\u{64}\u{3e}\u{5c}\u{6e}\u{3c}\u{2f}\u{74}\u{72}\u{3e}\u{5c}\u{6e}\u{3c}\u{74}\u{72}\u{3e}\u{5c}\u{6e}\u{3c}\u{74}\u{64}\u{20}\u{77}\u{69}\u{64}\u{74}\u{68}\u{3d}\u{27}\u{33}\u{30}\u{25}\u{27}\u{20}\u{63}\u{6c}\u{61}\u{73}\u{73}\u{3d}\u{27}\u{74}\u{62}\u{6c}\u{32}\u{27}\u{3e}\u{3c}\u{62}\u{3e}"))
(assert (= x_13 (str.++ x_10 literal_11)))
(assert (= x_16 (str.++ x_13 sigmaStar_1)))
(assert (= literal_17 "\u{3c}\u{2f}\u{62}\u{3e}\u{20}"))
(assert (= x_19 (str.++ x_16 literal_17)))
(assert (or (= x_18 sigmaStar_15) (= x_18 sigmaStar_14)))
(assert (= x_20 (str.++ x_19 x_18)))
(assert (= literal_21 "\u{3c}\u{2f}\u{74}\u{64}\u{3e}\u{5c}\u{6e}"))
(assert (= x_22 (str.++ x_20 literal_21)))
(assert (str.in_re x_22 (re.++ (re.* re.allchar) (re.++ (str.to_re "\u{5c}\u{3c}\u{53}\u{43}\u{52}\u{49}\u{50}\u{54}") (re.* re.allchar)))))
(check-sat)
(exit)
